10
5
5
-2 3 8 5 1 
190 178 137 -179 -67 
-8 5 -0 -7 8 
-27 -60 -21 -172 -18 
0 0 0 0 0 
0 0 20 0 0 
0 0 0 0 0 
0 0 0 0 0 
11 0 14 0 1 
8 0 0 0 0 
0 0 3 14 18 
0 0 3 13 8 
0 20 0 0 2 
0 0 0 0 0 
14 0 0 0 0 
0 -1 0 0 0 
0 0 2 0 0 
0 0 0 5 0 
0 0 0 0 18 
0 0 0 0 0 
0 0 0 0 0 
0 0 0 0 0 
0 0 0 0 0 
1 1 1 1 1 
58 88 85 96 71 99 81 61 83 1 
1 1 1 1 1 1 1 1 1 1 
